
  22   10
  10   10   10   10   10   10   10   10   10   10

   0   0   0   0   0   0   0   0   0   0   0   2 2 18 
   8   0   0   0   0   0   0  10   0   0   0   1 3 
   4   0   0   0   0   0   0   0  10   0   0   1 4 
   8   0   0   0   0   0   0   0   0   0  10   1 5 
   3   0   0   0   0   0   0   0  10   0   0   2 21 6 
   1   0   0  10   0   0   0   0   0   0   0   1 7 
   8   0  10   0   0   0   0   0   0   0   0   1 8 
   8   0   0   0   0   0  10   0   0   0   0   1 9 
   8   0   0   0   0   0   0  10   0   0   0   1 10 
   8   0   0   0   0   0   0   0   0   0  10   1 11 
   5   0   0   0   0   0   0  10   0   0   0   1 12 
   5   0   0  10   0   0   0   0   0   0   0   1 13 
   3   0   0  10   0   0   0   0   0   0   0   1 14 
   9   0   0   0   0   0   0   0   0  10   0   1 15 
   9   0   0   0   0   0   0  10   0   0   0   1 16 
   7  10   0   0   0   0   0   0   0   0   0   1 17 
   3   0   0   0   0   0  10   0   0   0   0   1 19 
   6   0   0  10   0   0   0   0   0   0   0   1 19 
   3   0   0   0   0   0   0   0   0   0  10   1 20 
   3  10   0   0   0   0   0   0   0   0   0   1 22
   5   0   0   0   0   0  10   0   0   0   0   1 22
   0   0   0   0   0   0   0   0   0   0   0   0 
